% demand
num_movements = 33;
loading_factor = [1800, 1950, 1500, 1550, 800, 1650, 1900, 1350, 1300, 1250, 1300, 1600, 850, 950, 1150, 1750, 1250, 1150, 950, 1350, 1850, 1650, 950, 1150, 1650, 1300, 1700, 1500, 850, 1450, 2000, 950, 1550];
pickup_time = [0, 0, 0, 0, 1, 1, 1, 1, 1, 2, 2, 4, 4, 4, 5, 5, 7, 7, 7, 7, 8, 8, 8, 9, 9, 9, 11, 11, 11, 11, 13, 13, 13];
delivery_time = [1, 1, 1, 1, 3, 3, 2, 2, 4, 4, 3, 6, 6, 6, 6, 6, 9, 8, 10, 8, 10, 9, 9, 10, 10, 13, 13, 13, 13, 13, 14, 14, 14];

% transporter definition
total_capacity = 7000;
num_decks = 3;
capacity = [3000, 1000, 3000];

% ways out of decks
num_ways_out = 1;
paths_out = array3d(decks, ways_out, decks, [
% ways out of deck d1
2, 3, 0, 

% ways out of deck d2
3, 0, 0, 

% ways out of deck d3
0, 0, 0,	

]);

